(set-info :source  loris-7.ddns.comp.nus.edu.sg/~project/hip/) 
;Variables declarations
(declare-fun r_9542 () Int)
(declare-fun c_primed () Int)
(declare-fun r_9581 () Int)
(declare-fun b_primed () Int)
(declare-fun nr_9582 () Int)
(declare-fun Anon_9583 () Int)
(declare-fun flted_195_9528 () Int)
(declare-fun nb () Int)
(declare-fun b () Int)
(declare-fun flted_195_9527 () Int)
(declare-fun nc () Int)
(declare-fun c () Int)
(declare-fun bhr_9584 () Int)
(declare-fun l_9577 () Int)
(declare-fun a_primed () Int)
(declare-fun flted_195_9529 () Int)
(declare-fun ha () Int)
(declare-fun na () Int)
(declare-fun a () Int)
;Relations declarations
;Axioms assertions
;Antecedent
(assert (= r_9542 c_primed))
(assert (= b_primed b))
(assert (= c_primed c))
(assert (= flted_195_9528 0))
(assert (= flted_195_9527 0))
(assert (= r_9581 b_primed))
(assert (= nr_9582 nb))
(assert (= Anon_9583 flted_195_9528))
(assert (or (and (and (and (= flted_195_9528 0) (<= 2 ha)) (<= 1 nb)) (> b 0)) (or (and (and (and (< b 1) (= nb 0)) (= ha 1)) (= flted_195_9528 0)) (and (and (and (= flted_195_9528 1) (<= 1 ha)) (<= 1 nb)) (> b 0)))))
(assert (or (and (and (and (= flted_195_9527 0) (<= 2 ha)) (<= 1 nc)) (> c 0)) (or (and (and (and (< c 1) (= nc 0)) (= ha 1)) (= flted_195_9527 0)) (and (and (and (= flted_195_9527 1) (<= 1 ha)) (<= 1 nc)) (> c 0)))))
(assert (= bhr_9584 ha))
(assert (= flted_195_9529 0))
(assert (= a_primed a))
(assert (= l_9577 a_primed))
(assert (or (and (and (and (= flted_195_9529 0) (<= 2 ha)) (<= 1 na)) (> a 0)) (or (and (and (and (< a 1) (= na 0)) (= ha 1)) (= flted_195_9529 0)) (and (and (and (= flted_195_9529 1) (<= 1 ha)) (<= 1 na)) (> a 0)))))
;Negation of Consequence
(assert (not (or (= na 0) (< a 1))))
(check-sat)